x low 4.00
p edge 80 229
n 28 1.00
n 47 1.00
n 46 1.00
n 48 1.00
n 49 1.00
n 50 1.00
n 51 1.00
n 52 1.00
n 45 1.00
n 105 1.00
n 270 1.00
n 111 1.00
n 109 1.00
n 115 1.00
n 113 1.00
n 107 1.00
n 169 1.00
n 195 1.00
n 108 1.00
n 110 1.00
n 127 1.00
n 112 1.00
n 122 1.00
n 123 1.00
n 114 1.00
n 116 1.00
n 117 1.00
n 118 1.00
n 179 1.00
n 180 1.00
n 181 1.00
n 182 1.00
n 183 1.00
n 256 1.00
n 120 1.00
n 119 1.00
n 121 1.00
n 124 1.00
n 174 1.00
n 177 1.00
n 185 1.00
n 125 1.00
n 126 1.00
n 176 1.00
n 171 1.00
n 173 1.00
n 168 1.00
n 172 1.00
n 194 1.00
n 190 1.00
n 170 1.00
n 175 1.00
n 178 1.00
n 189 1.00
n 186 1.00
n 252 1.00
n 188 1.00
n 184 1.00
n 255 1.00
n 187 1.00
n 249 1.00
n 262 1.00
n 265 1.00
n 191 1.00
n 250 1.00
n 193 1.00
n 192 1.00
n 268 1.00
n 269 1.00
n 267 1.00
n 253 1.00
n 254 1.00
n 259 1.00
n 258 1.00
n 260 1.00
n 257 1.00
n 261 1.00
n 263 1.00
n 264 1.00
n 266 1.00
e 28 47
e 28 46
e 28 48
e 28 49
e 28 50
e 28 51
e 28 52
e 28 45
e 28 105
e 28 270
e 45 46
e 45 111
e 45 109
e 45 105
e 46 47
e 46 111
e 47 48
e 47 111
e 48 49
e 48 111
e 49 50
e 49 111
e 50 51
e 50 115
e 50 111
e 51 52
e 51 115
e 52 115
e 105 109
e 105 107
e 105 169
e 105 195
e 105 270
e 107 109
e 107 108
e 107 169
e 108 109
e 108 110
e 108 127
e 108 169
e 109 111
e 109 110
e 110 112
e 110 111
e 110 122
e 110 127
e 111 112
e 111 115
e 111 123
e 112 123
e 112 122
e 113 115
e 113 114
e 113 116
e 114 115
e 114 116
e 114 117
e 114 118
e 115 117
e 115 123
e 116 118
e 116 179
e 116 180
e 116 181
e 116 182
e 116 183
e 116 256
e 117 123
e 117 118
e 117 120
e 117 119
e 117 121
e 118 119
e 118 179
e 119 121
e 119 179
e 120 123
e 120 121
e 120 124
e 120 174
e 120 177
e 121 179
e 121 180
e 121 177
e 121 185
e 122 123
e 122 125
e 122 126
e 122 127
e 123 125
e 123 124
e 124 125
e 124 174
e 125 126
e 125 174
e 125 176
e 126 127
e 126 171
e 126 176
e 127 171
e 127 173
e 127 168
e 127 169
e 168 173
e 168 169
e 168 172
e 168 194
e 168 190
e 169 194
e 169 195
e 170 176
e 170 171
e 170 172
e 170 175
e 170 178
e 171 176
e 171 173
e 171 172
e 172 173
e 172 178
e 172 190
e 172 189
e 174 176
e 174 175
e 174 177
e 175 176
e 175 178
e 175 177
e 177 178
e 177 186
e 177 185
e 177 252
e 178 186
e 178 188
e 178 189
e 179 180
e 180 181
e 180 185
e 181 185
e 181 182
e 181 184
e 182 184
e 182 183
e 183 184
e 183 255
e 183 256
e 184 185
e 184 255
e 185 255
e 185 252
e 186 188
e 186 187
e 186 252
e 187 189
e 187 188
e 187 252
e 187 249
e 187 262
e 187 265
e 188 189
e 189 190
e 189 191
e 189 250
e 189 249
e 190 194
e 190 193
e 190 191
e 191 193
e 191 192
e 191 250
e 192 195
e 192 193
e 192 250
e 192 268
e 192 269
e 193 194
e 193 195
e 194 195
e 195 268
e 195 270
e 249 250
e 249 265
e 249 267
e 250 267
e 250 269
e 252 255
e 252 253
e 252 254
e 252 262
e 253 255
e 253 254
e 253 259
e 253 258
e 253 256
e 254 262
e 254 259
e 254 260
e 255 256
e 256 258
e 256 257
e 257 258
e 257 261
e 257 263
e 257 264
e 257 266
e 257 269
e 258 259
e 258 261
e 259 260
e 259 261
e 260 262
e 260 261
e 260 263
e 261 263
e 262 265
e 262 263
e 263 265
e 263 264
e 264 265
e 264 266
e 265 267
e 265 266
e 266 267
e 266 269
e 267 269
e 268 270
e 268 269
e 269 270
e 52 113
